! Representative AIMD input used for dataset generation (CaO, 3x3x3, PBEsol)

&control
    title = 'CaO'
    prefix = 'cao3000'
    calculation = 'md'
    restart_mode = 'from_scratch'
    pseudo_dir = './pseudo/'

    outdir = './scratch/'

    verbosity = 'high'
    tprnfor = .true.
    tstress = .true.
    disk_io = 'low'
    dt = 20
    nstep = 1000
/
&system
    ibrav = 0
    nat = 216
    ntyp = 2
    ecutwfc = 70
    ecutrho = 560
    nosym = .true.
    input_dft = 'pbesol'
    occupations = 'smearing'
    degauss = 0.005
/
&electrons
    scf_must_converge = .false.
    mixing_beta = 0.7
    conv_thr = 1e-8
/
&ions
    ion_dynamics = 'verlet'
    ion_temperature = 'rescaling'
    tempw = 3000
    tolp = 20
    pot_extrapolation = 'second_order'
    wfc_extrapolation = 'second_order'
/
&cell
    !cell_dynamics = 'pr'
    !cell_factor = 1.5
    !press = 120
/
ATOMIC_SPECIES
Ca    40.08       Ca.pbesol-tm-dc.UPF
O     16.00       o_pbesol_v1.2.uspp.F.UPF       

K_POINTS gamma

CELL_PARAMETERS angstrom
       14.4213333130         0.0000000000         0.0000000000
        0.0000000000        14.4213333130         0.0000000000
        0.0000000000         0.0000000000        14.4213333130

ATOMIC_POSITIONS angstrom
Ca     0.000000000         0.000000000         0.000000000
Ca     0.000000000         0.000000000         4.807111248
Ca     0.000000000         0.000000000         9.614222495
Ca     0.000000000         4.807111248         0.000000000
Ca     0.000000000         4.807111248         4.807111248
Ca     0.000000000         4.807111248         9.614222495
Ca     0.000000000         9.614222495         0.000000000
Ca     0.000000000         9.614222495         4.807111248
Ca     0.000000000         9.614222495         9.614222495
Ca     4.807111248         0.000000000         0.000000000
Ca     4.807111248         0.000000000         4.807111248
Ca     4.807111248         0.000000000         9.614222495
Ca     4.807111248         4.807111248         0.000000000
Ca     4.807111248         4.807111248         4.807111248
Ca     4.807111248         4.807111248         9.614222495
Ca     4.807111248         9.614222495         0.000000000
Ca     4.807111248         9.614222495         4.807111248
Ca     4.807111248         9.614222495         9.614222495
Ca     9.614222495         0.000000000         0.000000000
Ca     9.614222495         0.000000000         4.807111248
Ca     9.614222495         0.000000000         9.614222495
Ca     9.614222495         4.807111248         0.000000000
Ca     9.614222495         4.807111248         4.807111248
Ca     9.614222495         4.807111248         9.614222495
Ca     9.614222495         9.614222495         0.000000000
Ca     9.614222495         9.614222495         4.807111248
Ca     9.614222495         9.614222495         9.614222495
Ca     0.000000000         2.403555624         2.403555624
Ca     0.000000000         2.403555624         7.210666656
Ca     0.000000000         2.403555624        12.017777474
Ca     0.000000000         7.210666656         2.403555624
Ca     0.000000000         7.210666656         7.210666656
Ca     0.000000000         7.210666656        12.017777474
Ca     0.000000000        12.017777474         2.403555624
Ca     0.000000000        12.017777474         7.210666656
Ca     0.000000000        12.017777474        12.017777474
Ca     4.807111248         2.403555624         2.403555624
Ca     4.807111248         2.403555624         7.210666656
Ca     4.807111248         2.403555624        12.017777474
Ca     4.807111248         7.210666656         2.403555624
Ca     4.807111248         7.210666656         7.210666656
Ca     4.807111248         7.210666656        12.017777474
Ca     4.807111248        12.017777474         2.403555624
Ca     4.807111248        12.017777474         7.210666656
Ca     4.807111248        12.017777474        12.017777474
Ca     9.614222495         2.403555624         2.403555624
Ca     9.614222495         2.403555624         7.210666656
Ca     9.614222495         2.403555624        12.017777474
Ca     9.614222495         7.210666656         2.403555624
Ca     9.614222495         7.210666656         7.210666656
Ca     9.614222495         7.210666656        12.017777474
Ca     9.614222495        12.017777474         2.403555624
Ca     9.614222495        12.017777474         7.210666656
Ca     9.614222495        12.017777474        12.017777474
Ca     2.403555624         0.000000000         2.403555624
Ca     2.403555624         0.000000000         7.210666656
Ca     2.403555624         0.000000000        12.017777474
Ca     2.403555624         4.807111248         2.403555624
Ca     2.403555624         4.807111248         7.210666656
Ca    2.403555624         4.807111248        12.017777474
Ca    2.403555624         9.614222495         2.403555624
Ca    2.403555624         9.614222495         7.210666656
Ca    2.403555624         9.614222495        12.017777474
Ca    7.210666656         0.000000000         2.403555624
Ca    7.210666656         0.000000000         7.210666656
Ca    7.210666656         0.000000000        12.017777474
Ca    7.210666656         4.807111248         2.403555624
Ca    7.210666656         4.807111248         7.210666656
Ca    7.210666656         4.807111248        12.017777474
Ca    7.210666656         9.614222495         2.403555624
Ca    7.210666656         9.614222495         7.210666656
Ca    7.210666656         9.614222495        12.017777474
Ca   12.017777474         0.000000000         2.403555624
Ca   12.017777474         0.000000000         7.210666656
Ca   12.017777474         0.000000000        12.017777474
Ca   12.017777474         4.807111248         2.403555624
Ca   12.017777474         4.807111248         7.210666656
Ca   12.017777474         4.807111248        12.017777474
Ca   12.017777474         9.614222495         2.403555624
Ca   12.017777474         9.614222495         7.210666656
Ca   12.017777474         9.614222495        12.017777474
Ca    2.403555624         2.403555624         0.000000000
Ca    2.403555624         2.403555624         4.807111248
Ca    2.403555624         2.403555624         9.614222495
Ca    2.403555624         7.210666656         0.000000000
Ca    2.403555624         7.210666656         4.807111248
Ca    2.403555624         7.210666656         9.614222495
Ca    2.403555624        12.017777474         0.000000000
Ca    2.403555624        12.017777474         4.807111248
Ca    2.403555624        12.017777474         9.614222495
Ca    7.210666656         2.403555624         0.000000000
Ca    7.210666656         2.403555624         4.807111248
Ca    7.210666656         2.403555624         9.614222495
Ca    7.210666656         7.210666656         0.000000000
Ca    7.210666656         7.210666656         4.807111248
Ca    7.210666656         7.210666656         9.614222495
Ca    7.210666656        12.017777474         0.000000000
Ca    7.210666656        12.017777474         4.807111248
Ca    7.210666656        12.017777474         9.614222495
Ca   12.017777474         2.403555624         0.000000000
Ca   12.017777474         2.403555624         4.807111248
Ca   12.017777474         2.403555624         9.614222495
Ca   12.017777474         7.210666656         0.000000000
Ca   12.017777474         7.210666656         4.807111248
Ca   12.017777474         7.210666656         9.614222495
Ca   12.017777474        12.017777474         0.000000000
Ca   12.017777474        12.017777474         4.807111248
Ca   12.017777474        12.017777474         9.614222495
O    0.000000000         2.403555624         0.000000000
O    0.000000000         2.403555624         4.807111248
O    0.000000000         2.403555624         9.614222495
O    0.000000000         7.210666656         0.000000000
O    0.000000000         7.210666656         4.807111248
O    0.000000000         7.210666656         9.614222495
O    0.000000000        12.017777474         0.000000000
O    0.000000000        12.017777474         4.807111248
O    0.000000000        12.017777474         9.614222495
O    4.807111248         2.403555624         0.000000000
O    4.807111248         2.403555624         4.807111248
O    4.807111248         2.403555624         9.614222495
O    4.807111248         7.210666656         0.000000000
O    4.807111248         7.210666656         4.807111248
O    4.807111248         7.210666656         9.614222495
O    4.807111248        12.017777474         0.000000000
O    4.807111248        12.017777474         4.807111248
O    4.807111248        12.017777474         9.614222495
O    9.614222495         2.403555624         0.000000000
O    9.614222495         2.403555624         4.807111248
O    9.614222495         2.403555624         9.614222495
O    9.614222495         7.210666656         0.000000000
O    9.614222495         7.210666656         4.807111248
O    9.614222495         7.210666656         9.614222495
O    9.614222495        12.017777474         0.000000000
O    9.614222495        12.017777474         4.807111248
O    9.614222495        12.017777474         9.614222495
O    0.000000000         0.000000000         2.403555624
O    0.000000000         0.000000000         7.210666656
O    0.000000000         0.000000000        12.017777474
O    0.000000000         4.807111248         2.403555624
O    0.000000000         4.807111248         7.210666656
O    0.000000000         4.807111248        12.017777474
O    0.000000000         9.614222495         2.403555624
O    0.000000000         9.614222495         7.210666656
O    0.000000000         9.614222495        12.017777474
O    4.807111248         0.000000000         2.403555624
O    4.807111248         0.000000000         7.210666656
O    4.807111248         0.000000000        12.017777474
O    4.807111248         4.807111248         2.403555624
O    4.807111248         4.807111248         7.210666656
O    4.807111248         4.807111248        12.017777474
O    4.807111248         9.614222495         2.403555624
O    4.807111248         9.614222495         7.210666656
O    4.807111248         9.614222495        12.017777474
O    9.614222495         0.000000000         2.403555624
O    9.614222495         0.000000000         7.210666656
O    9.614222495         0.000000000        12.017777474
O    9.614222495         4.807111248         2.403555624
O    9.614222495         4.807111248         7.210666656
O    9.614222495         4.807111248        12.017777474
O    9.614222495         9.614222495         2.403555624
O    9.614222495         9.614222495         7.210666656
O    9.614222495         9.614222495        12.017777474
O    2.403555624         2.403555624         2.403555624
O    2.403555624         2.403555624         7.210666656
O    2.403555624         2.403555624        12.017777474
O    2.403555624         7.210666656         2.403555624
O    2.403555624         7.210666656         7.210666656
O    2.403555624         7.210666656        12.017777474
O    2.403555624        12.017777474         2.403555624
O    2.403555624        12.017777474         7.210666656
O    2.403555624        12.017777474        12.017777474
O    7.210666656         2.403555624         2.403555624
O    7.210666656         2.403555624         7.210666656
O    7.210666656         2.403555624        12.017777474
O    7.210666656         7.210666656         2.403555624
O    7.210666656         7.210666656         7.210666656
O    7.210666656         7.210666656        12.017777474
O    7.210666656        12.017777474         2.403555624
O    7.210666656        12.017777474         7.210666656
O    7.210666656        12.017777474        12.017777474
O   12.017777474         2.403555624         2.403555624
O   12.017777474         2.403555624         7.210666656
O   12.017777474         2.403555624        12.017777474
O   12.017777474         7.210666656         2.403555624
O   12.017777474         7.210666656         7.210666656
O   12.017777474         7.210666656        12.017777474
O   12.017777474        12.017777474         2.403555624
O   12.017777474        12.017777474         7.210666656
O   12.017777474        12.017777474        12.017777474
O    2.403555624         0.000000000         0.000000000
O    2.403555624         0.000000000         4.807111248
O    2.403555624         0.000000000         9.614222495
O    2.403555624         4.807111248         0.000000000
O    2.403555624         4.807111248         4.807111248
O    2.403555624         4.807111248         9.614222495
O    2.403555624         9.614222495         0.000000000
O    2.403555624         9.614222495         4.807111248
O    2.403555624         9.614222495         9.614222495
O    7.210666656         0.000000000         0.000000000
O    7.210666656         0.000000000         4.807111248
O    7.210666656         0.000000000         9.614222495
O    7.210666656         4.807111248         0.000000000
O    7.210666656         4.807111248         4.807111248
O    7.210666656         4.807111248         9.614222495
O    7.210666656         9.614222495         0.000000000
O    7.210666656         9.614222495         4.807111248
O    7.210666656         9.614222495         9.614222495
O   12.017777474         0.000000000         0.000000000
O   12.017777474         0.000000000         4.807111248
O   12.017777474         0.000000000         9.614222495
O   12.017777474         4.807111248         0.000000000
O   12.017777474         4.807111248         4.807111248
O   12.017777474         4.807111248         9.614222495
O   12.017777474         9.614222495         0.000000000
O   12.017777474         9.614222495         4.807111248
O   12.017777474         9.614222495         9.614222495
